
Gurobi 6.5.2 (win64) logging started 07/24/16 17:34:08


Gurobi 6.5.2 (win64) logging started 07/24/16 17:34:08

Optimize a model with 3105 rows, 758 columns and 7956 nonzeros
Coefficient statistics:
  Matrix range    [6e-08, 4e+02]
  Objective range [1e+00, 1e+00]
  Bounds range    [1e+00, 1e+00]
  RHS range       [6e-06, 1e+03]
Presolve removed 2425 rows and 74 columns
Presolve time: 0.02s
Presolved: 680 rows, 684 columns, 3216 nonzeros
Variable types: 285 continuous, 399 integer (399 binary)

Root relaxation: objective 1.907332e+01, 1616 iterations, 0.05 seconds

    Nodes    |    Current Node    |     Objective Bounds      |     Work
 Expl Unexpl |  Obj  Depth IntInf | Incumbent    BestBd   Gap | It/Node Time

     0     0   19.07332    0  153          -   19.07332      -     -    0s
     0     0   20.82122    0  125          -   20.82122      -     -    0s
H    0     0                      21.5059297   20.82122  3.18%     -    0s
H    0     0                      21.4747086   20.82122  3.04%     -    0s
H    0     0                      21.3655993   20.82122  2.55%     -    0s
     0     0   20.83202    0  128   21.36560   20.83202  2.50%     -    0s
     0     0   20.83466    0  126   21.36560   20.83466  2.49%     -    0s
     0     0   20.85444    0  133   21.36560   20.85444  2.39%     -    0s
     0     0   20.85874    0  129   21.36560   20.85874  2.37%     -    0s
     0     0   20.86446    0  130   21.36560   20.86446  2.35%     -    0s
H    0     0                      21.3450171   20.86446  2.25%     -    0s
     0     0   20.86610    0  130   21.34502   20.86610  2.24%     -    0s
     0     0   20.86781    0  130   21.34502   20.86781  2.24%     -    0s
     0     0   20.86781    0  121   21.34502   20.86781  2.24%     -    0s
     0     0   20.86781    0  101   21.34502   20.86781  2.24%     -    0s
     0     0   20.94286    0  110   21.34502   20.94286  1.88%     -    0s
     0     0   20.97026    0  112   21.34502   20.97026  1.76%     -    0s
     0     0   20.98246    0  110   21.34502   20.98246  1.70%     -    0s
     0     0   20.98246    0  110   21.34502   20.98246  1.70%     -    0s
     0     0   20.98329    0  112   21.34502   20.98329  1.69%     -    0s
     0     0   20.98329    0  108   21.34502   20.98329  1.69%     -    0s
     0     2   20.98329    0  108   21.34502   20.98329  1.69%     -    0s
*  146    93              20      21.3304669   21.04639  1.33%  17.8    0s
H  166    77                      21.3110294   21.04639  1.24%  17.4    0s
*  172    65              23      21.2880060   21.04639  1.13%  16.9    0s
*  713   112              27      21.2852437   21.17316  0.53%  15.6    0s
*  729   113              23      21.2814309   21.17450  0.50%  15.6    0s

Cutting planes:
  Gomory: 6
  MIR: 33

Explored 1200 nodes (20196 simplex iterations) in 0.73 seconds
Thread count was 8 (of 8 available processors)

Optimal solution found (tolerance 1.00e-04)
Warning: max constraint violation (2.7488e-06) exceeds tolerance
Best objective 2.128143091700e+01, best bound 2.128143091697e+01, gap 0.0%

Wrote requested result file 'H1\instance17\\Results17E_Sol6.lp'

